c File: data_files/evolved_graphs/g0106.col
c
c Auto generated graph
c
p edge 100 2678
e 1 2
e 1 4
e 1 7
e 1 10
e 1 12
e 1 13
e 1 14
e 1 32
e 1 34
e 1 42
e 1 43
e 1 44
e 1 49
e 1 53
e 1 54
e 1 55
e 1 56
e 1 57
e 1 58
e 1 59
e 1 60
e 1 61
e 1 62
e 1 63
e 1 64
e 1 68
e 1 69
e 1 70
e 1 71
e 1 72
e 1 73
e 1 74
e 1 75
e 1 76
e 1 77
e 1 78
e 1 79
e 1 80
e 1 81
e 1 82
e 1 83
e 1 84
e 1 85
e 1 86
e 1 87
e 1 88
e 1 89
e 1 90
e 1 91
e 1 92
e 1 93
e 1 94
e 1 95
e 1 96
e 1 98
e 1 100
e 2 3
e 2 4
e 2 5
e 2 6
e 2 11
e 2 12
e 2 14
e 2 20
e 2 21
e 2 29
e 2 44
e 2 51
e 2 53
e 2 54
e 2 55
e 2 56
e 2 57
e 2 59
e 2 60
e 2 61
e 2 62
e 2 63
e 2 64
e 2 68
e 2 69
e 2 70
e 2 71
e 2 72
e 2 73
e 2 74
e 2 75
e 2 76
e 2 77
e 2 78
e 2 79
e 2 80
e 2 81
e 2 82
e 2 83
e 2 84
e 2 85
e 2 86
e 2 87
e 2 88
e 2 89
e 2 90
e 2 91
e 2 92
e 2 93
e 2 94
e 2 95
e 2 96
e 2 98
e 2 99
e 2 100
e 3 4
e 3 5
e 3 7
e 3 8
e 3 9
e 3 10
e 3 11
e 3 12
e 3 13
e 3 14
e 3 16
e 3 41
e 3 42
e 3 45
e 3 51
e 3 53
e 3 54
e 3 55
e 3 56
e 3 57
e 3 58
e 3 59
e 3 60
e 3 61
e 3 62
e 3 63
e 3 64
e 3 68
e 3 69
e 3 70
e 3 71
e 3 72
e 3 73
e 3 74
e 3 75
e 3 76
e 3 77
e 3 78
e 3 79
e 3 80
e 3 81
e 3 82
e 3 83
e 3 84
e 3 85
e 3 86
e 3 87
e 3 88
e 3 89
e 3 90
e 3 91
e 3 92
e 3 93
e 3 94
e 3 96
e 3 97
e 3 99
e 3 100
e 4 5
e 4 6
e 4 7
e 4 8
e 4 9
e 4 10
e 4 11
e 4 12
e 4 14
e 4 24
e 4 31
e 4 42
e 4 43
e 4 45
e 4 50
e 4 51
e 4 53
e 4 54
e 4 55
e 4 56
e 4 57
e 4 58
e 4 59
e 4 60
e 4 61
e 4 62
e 4 63
e 4 64
e 4 67
e 4 68
e 4 69
e 4 70
e 4 71
e 4 72
e 4 73
e 4 74
e 4 75
e 4 76
e 4 77
e 4 78
e 4 79
e 4 80
e 4 81
e 4 82
e 4 83
e 4 84
e 4 85
e 4 86
e 4 87
e 4 88
e 4 89
e 4 90
e 4 91
e 4 92
e 4 93
e 4 94
e 4 100
e 5 6
e 5 7
e 5 8
e 5 9
e 5 10
e 5 11
e 5 12
e 5 13
e 5 16
e 5 22
e 5 29
e 5 42
e 5 44
e 5 51
e 5 53
e 5 54
e 5 55
e 5 56
e 5 57
e 5 58
e 5 59
e 5 60
e 5 61
e 5 62
e 5 63
e 5 64
e 5 65
e 5 68
e 5 69
e 5 70
e 5 71
e 5 72
e 5 73
e 5 74
e 5 75
e 5 76
e 5 77
e 5 78
e 5 79
e 5 80
e 5 81
e 5 82
e 5 83
e 5 84
e 5 85
e 5 86
e 5 87
e 5 88
e 5 89
e 5 90
e 5 91
e 5 92
e 5 93
e 5 94
e 5 95
e 5 96
e 5 97
e 5 100
e 6 7
e 6 8
e 6 9
e 6 11
e 6 12
e 6 37
e 6 42
e 6 43
e 6 44
e 6 45
e 6 53
e 6 54
e 6 55
e 6 56
e 6 57
e 6 58
e 6 59
e 6 60
e 6 61
e 6 62
e 6 63
e 6 68
e 6 69
e 6 70
e 6 71
e 6 72
e 6 73
e 6 74
e 6 75
e 6 76
e 6 77
e 6 78
e 6 79
e 6 80
e 6 81
e 6 82
e 6 83
e 6 84
e 6 85
e 6 86
e 6 87
e 6 88
e 6 89
e 6 90
e 6 91
e 6 92
e 6 93
e 6 94
e 6 95
e 6 97
e 6 100
e 7 8
e 7 9
e 7 10
e 7 11
e 7 13
e 7 14
e 7 47
e 7 49
e 7 53
e 7 54
e 7 55
e 7 56
e 7 57
e 7 58
e 7 59
e 7 60
e 7 61
e 7 62
e 7 63
e 7 68
e 7 69
e 7 70
e 7 71
e 7 72
e 7 73
e 7 74
e 7 75
e 7 76
e 7 77
e 7 78
e 7 79
e 7 80
e 7 81
e 7 82
e 7 83
e 7 84
e 7 85
e 7 86
e 7 87
e 7 88
e 7 89
e 7 90
e 7 91
e 7 92
e 7 93
e 7 94
e 7 95
e 7 96
e 7 97
e 7 98
e 7 100
e 8 9
e 8 10
e 8 11
e 8 12
e 8 13
e 8 14
e 8 15
e 8 16
e 8 19
e 8 53
e 8 54
e 8 55
e 8 56
e 8 57
e 8 58
e 8 59
e 8 60
e 8 61
e 8 62
e 8 63
e 8 64
e 8 78
e 8 79
e 8 80
e 8 81
e 8 82
e 8 83
e 8 84
e 8 85
e 8 86
e 8 87
e 8 88
e 8 89
e 8 90
e 8 91
e 8 92
e 8 93
e 8 94
e 8 95
e 8 96
e 8 97
e 8 98
e 8 100
e 9 10
e 9 11
e 9 12
e 9 13
e 9 14
e 9 15
e 9 16
e 9 17
e 9 18
e 9 19
e 9 20
e 9 21
e 9 22
e 9 26
e 9 27
e 9 28
e 9 29
e 9 30
e 9 31
e 9 32
e 9 33
e 9 34
e 9 35
e 9 36
e 9 37
e 9 38
e 9 39
e 9 40
e 9 41
e 9 43
e 9 45
e 9 46
e 9 47
e 9 49
e 9 50
e 9 52
e 9 54
e 9 55
e 9 56
e 9 57
e 9 59
e 9 60
e 9 61
e 9 62
e 9 78
e 9 79
e 9 80
e 9 82
e 9 83
e 9 84
e 9 85
e 9 87
e 9 88
e 9 89
e 9 90
e 9 92
e 9 93
e 9 94
e 9 95
e 9 96
e 9 98
e 10 11
e 10 12
e 10 13
e 10 14
e 10 16
e 10 18
e 10 19
e 10 20
e 10 21
e 10 22
e 10 26
e 10 27
e 10 28
e 10 29
e 10 30
e 10 31
e 10 32
e 10 33
e 10 34
e 10 35
e 10 36
e 10 37
e 10 38
e 10 39
e 10 40
e 10 41
e 10 42
e 10 43
e 10 44
e 10 45
e 10 46
e 10 47
e 10 48
e 10 49
e 10 50
e 10 51
e 10 52
e 10 54
e 10 55
e 10 56
e 10 57
e 10 58
e 10 59
e 10 60
e 10 61
e 10 62
e 10 63
e 10 64
e 10 81
e 10 82
e 10 83
e 10 84
e 10 86
e 10 87
e 10 88
e 10 89
e 10 90
e 10 92
e 10 94
e 10 95
e 10 96
e 10 97
e 10 98
e 10 100
e 11 12
e 11 13
e 11 14
e 11 15
e 11 16
e 11 17
e 11 18
e 11 19
e 11 20
e 11 21
e 11 22
e 11 23
e 11 26
e 11 27
e 11 28
e 11 29
e 11 30
e 11 31
e 11 32
e 11 33
e 11 34
e 11 35
e 11 36
e 11 37
e 11 38
e 11 39
e 11 42
e 11 44
e 11 46
e 11 47
e 11 48
e 11 49
e 11 50
e 11 51
e 11 52
e 11 54
e 11 55
e 11 56
e 11 58
e 11 59
e 11 60
e 11 61
e 11 62
e 11 63
e 11 66
e 11 67
e 11 78
e 11 79
e 11 80
e 11 81
e 11 82
e 11 83
e 11 84
e 11 86
e 11 87
e 11 88
e 11 90
e 11 91
e 11 92
e 11 93
e 11 94
e 11 95
e 11 96
e 11 97
e 11 98
e 11 100
e 12 13
e 12 14
e 12 16
e 12 18
e 12 19
e 12 20
e 12 21
e 12 22
e 12 24
e 12 25
e 12 26
e 12 27
e 12 28
e 12 29
e 12 30
e 12 32
e 12 34
e 12 35
e 12 36
e 12 37
e 12 38
e 12 40
e 12 41
e 12 42
e 12 43
e 12 44
e 12 45
e 12 46
e 12 47
e 12 50
e 12 51
e 12 52
e 12 53
e 12 54
e 12 57
e 12 58
e 12 59
e 12 60
e 12 61
e 12 62
e 12 63
e 12 64
e 12 66
e 12 67
e 12 78
e 12 79
e 12 81
e 12 82
e 12 83
e 12 84
e 12 85
e 12 86
e 12 87
e 12 88
e 12 89
e 12 90
e 12 91
e 12 92
e 12 93
e 12 94
e 12 95
e 12 96
e 12 97
e 12 98
e 12 100
e 13 14
e 13 15
e 13 16
e 13 18
e 13 19
e 13 20
e 13 21
e 13 22
e 13 23
e 13 26
e 13 27
e 13 28
e 13 29
e 13 30
e 13 31
e 13 32
e 13 33
e 13 34
e 13 35
e 13 36
e 13 37
e 13 38
e 13 39
e 13 41
e 13 65
e 13 67
e 13 78
e 13 79
e 13 80
e 13 81
e 13 82
e 13 83
e 13 84
e 13 85
e 13 86
e 13 87
e 13 88
e 13 89
e 13 90
e 13 91
e 13 92
e 13 93
e 13 94
e 13 95
e 13 96
e 13 97
e 13 98
e 13 100
e 14 15
e 14 16
e 14 17
e 14 18
e 14 19
e 14 20
e 14 21
e 14 22
e 14 24
e 14 26
e 14 27
e 14 29
e 14 30
e 14 31
e 14 32
e 14 33
e 14 34
e 14 35
e 14 36
e 14 37
e 14 38
e 14 39
e 14 63
e 14 65
e 14 66
e 14 74
e 14 78
e 14 79
e 14 81
e 14 82
e 14 83
e 14 84
e 14 85
e 14 86
e 14 87
e 14 88
e 14 89
e 14 90
e 14 91
e 14 92
e 14 93
e 14 94
e 14 95
e 14 96
e 14 97
e 14 98
e 14 100
e 15 16
e 15 17
e 15 18
e 15 20
e 15 21
e 15 22
e 15 23
e 15 24
e 15 26
e 15 27
e 15 28
e 15 29
e 15 30
e 15 31
e 15 32
e 15 33
e 15 34
e 15 35
e 15 36
e 15 37
e 15 38
e 15 39
e 15 40
e 15 41
e 15 43
e 15 44
e 15 45
e 15 48
e 15 54
e 15 56
e 15 79
e 15 81
e 15 82
e 15 83
e 15 84
e 15 85
e 15 86
e 15 87
e 15 88
e 15 89
e 15 90
e 15 91
e 15 92
e 15 93
e 15 94
e 15 95
e 15 96
e 15 97
e 15 98
e 15 100
e 16 17
e 16 18
e 16 19
e 16 20
e 16 21
e 16 23
e 16 24
e 16 25
e 16 26
e 16 29
e 16 30
e 16 31
e 16 32
e 16 33
e 16 34
e 16 35
e 16 36
e 16 37
e 16 47
e 16 48
e 16 64
e 16 80
e 16 85
e 16 88
e 16 90
e 16 98
e 16 100
e 17 18
e 17 19
e 17 20
e 17 22
e 17 23
e 17 24
e 17 25
e 17 27
e 17 29
e 17 30
e 17 31
e 17 32
e 17 33
e 17 35
e 17 36
e 17 37
e 17 38
e 17 39
e 17 45
e 17 91
e 17 94
e 17 96
e 17 97
e 17 98
e 17 99
e 17 100
e 18 19
e 18 20
e 18 21
e 18 22
e 18 23
e 18 25
e 18 26
e 18 27
e 18 28
e 18 29
e 18 30
e 18 31
e 18 32
e 18 33
e 18 34
e 18 36
e 18 37
e 18 38
e 18 39
e 18 41
e 18 47
e 18 48
e 18 80
e 18 81
e 18 90
e 18 92
e 18 93
e 18 95
e 18 97
e 18 98
e 18 100
e 19 20
e 19 21
e 19 23
e 19 24
e 19 25
e 19 26
e 19 28
e 19 29
e 19 30
e 19 31
e 19 32
e 19 33
e 19 34
e 19 36
e 19 37
e 19 38
e 19 42
e 19 45
e 19 79
e 19 82
e 19 84
e 19 86
e 19 88
e 19 89
e 19 90
e 19 91
e 19 93
e 19 96
e 19 98
e 19 99
e 19 100
e 20 22
e 20 23
e 20 25
e 20 26
e 20 27
e 20 28
e 20 29
e 20 31
e 20 32
e 20 33
e 20 34
e 20 35
e 20 36
e 20 37
e 20 38
e 20 39
e 20 44
e 20 46
e 20 48
e 20 54
e 20 79
e 20 80
e 20 84
e 20 89
e 20 93
e 20 95
e 20 96
e 20 98
e 20 99
e 21 22
e 21 23
e 21 24
e 21 25
e 21 26
e 21 27
e 21 28
e 21 29
e 21 30
e 21 32
e 21 33
e 21 34
e 21 35
e 21 36
e 21 37
e 21 38
e 21 39
e 21 40
e 21 43
e 21 44
e 21 57
e 21 82
e 21 83
e 21 84
e 21 87
e 21 90
e 21 98
e 21 99
e 21 100
e 22 24
e 22 25
e 22 26
e 22 27
e 22 28
e 22 29
e 22 31
e 22 32
e 22 33
e 22 34
e 22 35
e 22 36
e 22 37
e 22 38
e 22 42
e 22 46
e 22 48
e 22 58
e 22 84
e 22 93
e 22 94
e 22 98
e 22 99
e 22 100
e 23 24
e 23 25
e 23 26
e 23 27
e 23 28
e 23 29
e 23 30
e 23 53
e 23 56
e 23 59
e 23 78
e 23 79
e 23 82
e 23 85
e 23 87
e 23 90
e 23 93
e 23 94
e 23 95
e 23 97
e 23 98
e 23 99
e 24 25
e 24 26
e 24 27
e 24 28
e 24 30
e 24 37
e 24 55
e 24 64
e 24 78
e 24 80
e 24 82
e 24 83
e 24 85
e 24 87
e 24 91
e 24 95
e 24 96
e 24 98
e 24 99
e 24 100
e 25 26
e 25 27
e 25 28
e 25 29
e 25 30
e 25 37
e 25 44
e 25 59
e 25 62
e 25 80
e 25 83
e 25 84
e 25 85
e 25 94
e 25 96
e 25 98
e 25 99
e 25 100
e 26 27
e 26 28
e 26 30
e 26 43
e 26 64
e 26 80
e 26 81
e 26 83
e 26 86
e 26 91
e 26 98
e 26 99
e 26 100
e 27 28
e 27 29
e 27 30
e 27 39
e 27 54
e 27 58
e 27 79
e 27 80
e 27 82
e 27 83
e 27 84
e 27 85
e 27 86
e 27 87
e 27 89
e 27 90
e 27 91
e 27 93
e 27 98
e 27 100
e 28 29
e 28 30
e 28 59
e 28 63
e 28 80
e 28 81
e 28 82
e 28 83
e 28 84
e 28 85
e 28 86
e 28 87
e 28 88
e 28 89
e 28 90
e 28 91
e 28 92
e 28 94
e 28 95
e 28 97
e 28 100
e 29 32
e 29 33
e 29 55
e 29 80
e 29 82
e 29 83
e 29 86
e 29 87
e 29 88
e 29 89
e 29 90
e 29 91
e 29 93
e 29 94
e 29 95
e 29 96
e 29 97
e 29 98
e 29 100
e 30 37
e 30 39
e 30 40
e 30 56
e 30 59
e 30 80
e 30 81
e 30 82
e 30 83
e 30 85
e 30 86
e 30 87
e 30 88
e 30 91
e 30 95
e 30 96
e 30 97
e 30 98
e 30 99
e 30 100
e 31 32
e 31 33
e 31 35
e 31 36
e 31 37
e 31 38
e 31 39
e 31 41
e 31 42
e 31 43
e 31 44
e 31 45
e 31 46
e 31 47
e 31 48
e 31 67
e 31 80
e 31 81
e 31 82
e 31 83
e 31 84
e 31 85
e 31 86
e 31 90
e 31 91
e 31 92
e 31 93
e 31 94
e 31 95
e 31 97
e 31 98
e 31 99
e 31 100
e 32 33
e 32 34
e 32 36
e 32 37
e 32 38
e 32 39
e 32 40
e 32 41
e 32 42
e 32 43
e 32 44
e 32 45
e 32 48
e 32 80
e 32 81
e 32 82
e 32 83
e 32 84
e 32 85
e 32 87
e 32 88
e 32 89
e 32 90
e 32 91
e 32 93
e 32 94
e 32 96
e 32 97
e 32 98
e 32 99
e 33 34
e 33 35
e 33 36
e 33 37
e 33 38
e 33 39
e 33 40
e 33 41
e 33 43
e 33 44
e 33 45
e 33 46
e 33 47
e 33 48
e 33 80
e 33 81
e 33 82
e 33 83
e 33 84
e 33 85
e 33 86
e 33 87
e 33 88
e 33 90
e 33 91
e 33 92
e 33 98
e 33 100
e 34 35
e 34 36
e 34 37
e 34 38
e 34 39
e 34 40
e 34 41
e 34 42
e 34 43
e 34 44
e 34 45
e 34 46
e 34 47
e 34 80
e 34 81
e 34 82
e 34 83
e 34 85
e 34 87
e 34 89
e 34 90
e 34 91
e 34 92
e 34 94
e 34 95
e 34 98
e 34 99
e 34 100
e 35 36
e 35 37
e 35 39
e 35 40
e 35 41
e 35 42
e 35 43
e 35 45
e 35 46
e 35 47
e 35 48
e 35 55
e 35 80
e 35 81
e 35 82
e 35 83
e 35 84
e 35 86
e 35 87
e 35 88
e 35 89
e 35 90
e 35 91
e 35 92
e 35 93
e 35 94
e 35 95
e 35 98
e 35 99
e 36 37
e 36 38
e 36 39
e 36 40
e 36 41
e 36 43
e 36 44
e 36 45
e 36 46
e 36 47
e 36 48
e 36 80
e 36 82
e 36 84
e 36 85
e 36 86
e 36 87
e 36 88
e 36 89
e 36 90
e 36 91
e 36 92
e 36 93
e 36 95
e 36 98
e 36 99
e 36 100
e 37 38
e 37 39
e 37 40
e 37 41
e 37 42
e 37 43
e 37 44
e 37 45
e 37 46
e 37 47
e 37 48
e 37 81
e 37 82
e 37 83
e 37 85
e 37 87
e 37 88
e 37 89
e 37 90
e 37 91
e 37 92
e 37 93
e 37 94
e 37 98
e 37 99
e 38 39
e 38 40
e 38 41
e 38 42
e 38 43
e 38 44
e 38 45
e 38 46
e 38 47
e 38 48
e 38 58
e 38 80
e 38 81
e 38 82
e 38 83
e 38 84
e 38 85
e 38 86
e 38 87
e 38 89
e 38 90
e 38 91
e 38 92
e 38 93
e 38 94
e 38 98
e 38 99
e 38 100
e 39 40
e 39 41
e 39 42
e 39 43
e 39 44
e 39 45
e 39 46
e 39 47
e 39 48
e 39 80
e 39 82
e 39 83
e 39 84
e 39 85
e 39 86
e 39 87
e 39 89
e 39 90
e 39 91
e 39 92
e 39 93
e 39 94
e 39 95
e 39 98
e 39 99
e 40 41
e 40 42
e 40 43
e 40 44
e 40 45
e 40 46
e 40 47
e 40 82
e 40 83
e 40 84
e 40 85
e 40 91
e 40 93
e 40 94
e 40 95
e 40 98
e 40 99
e 40 100
e 41 42
e 41 43
e 41 44
e 41 45
e 41 46
e 41 47
e 41 63
e 41 64
e 41 83
e 41 85
e 41 87
e 41 88
e 41 89
e 41 90
e 41 91
e 41 93
e 41 94
e 41 95
e 41 98
e 41 99
e 41 100
e 42 43
e 42 45
e 42 46
e 42 47
e 42 48
e 42 83
e 42 84
e 42 85
e 42 87
e 42 88
e 42 89
e 42 91
e 42 92
e 42 93
e 42 95
e 42 98
e 42 100
e 43 44
e 43 45
e 43 47
e 43 48
e 43 49
e 43 50
e 43 82
e 43 83
e 43 84
e 43 85
e 43 86
e 43 87
e 43 88
e 43 89
e 43 90
e 43 91
e 43 92
e 43 95
e 43 98
e 43 99
e 43 100
e 44 45
e 44 46
e 44 47
e 44 48
e 44 70
e 44 81
e 44 82
e 44 83
e 44 84
e 44 88
e 44 89
e 44 91
e 44 92
e 44 94
e 44 95
e 44 99
e 44 100
e 45 46
e 45 47
e 45 48
e 45 49
e 45 50
e 45 78
e 45 79
e 45 80
e 45 82
e 45 84
e 45 85
e 45 86
e 45 88
e 45 89
e 45 90
e 45 91
e 45 92
e 45 95
e 45 96
e 45 97
e 45 98
e 45 99
e 46 47
e 46 48
e 46 49
e 46 50
e 46 52
e 46 54
e 46 78
e 46 79
e 46 82
e 46 83
e 46 84
e 46 85
e 46 87
e 46 88
e 46 89
e 46 90
e 46 91
e 46 92
e 46 93
e 46 94
e 46 96
e 46 97
e 46 98
e 46 99
e 46 100
e 47 48
e 47 55
e 47 56
e 47 76
e 47 78
e 47 79
e 47 80
e 47 81
e 47 82
e 47 83
e 47 85
e 47 87
e 47 88
e 47 89
e 47 90
e 47 91
e 47 92
e 47 93
e 47 94
e 47 95
e 47 96
e 47 97
e 47 98
e 47 99
e 47 100
e 48 49
e 48 62
e 48 78
e 48 79
e 48 81
e 48 82
e 48 83
e 48 85
e 48 86
e 48 87
e 48 88
e 48 89
e 48 91
e 48 92
e 48 93
e 48 94
e 48 95
e 48 96
e 48 97
e 48 98
e 48 99
e 48 100
e 49 50
e 49 51
e 49 52
e 49 53
e 49 55
e 49 56
e 49 57
e 49 58
e 49 59
e 49 60
e 49 61
e 49 62
e 49 63
e 49 64
e 49 66
e 49 69
e 49 70
e 49 71
e 49 72
e 49 73
e 49 74
e 49 75
e 49 76
e 49 77
e 49 80
e 49 81
e 49 82
e 49 83
e 49 84
e 49 85
e 49 86
e 49 87
e 49 88
e 49 89
e 49 90
e 49 91
e 49 92
e 49 93
e 49 95
e 49 96
e 49 97
e 49 98
e 49 100
e 50 51
e 50 52
e 50 53
e 50 54
e 50 55
e 50 56
e 50 57
e 50 58
e 50 59
e 50 60
e 50 61
e 50 62
e 50 69
e 50 70
e 50 71
e 50 72
e 50 73
e 50 74
e 50 75
e 50 76
e 50 77
e 50 78
e 50 79
e 50 80
e 50 81
e 50 82
e 50 83
e 50 84
e 50 85
e 50 86
e 50 87
e 50 88
e 50 89
e 50 90
e 50 91
e 50 92
e 50 93
e 50 94
e 50 95
e 50 96
e 50 97
e 50 99
e 50 100
e 51 52
e 51 53
e 51 54
e 51 55
e 51 56
e 51 57
e 51 58
e 51 59
e 51 60
e 51 61
e 51 62
e 51 63
e 51 64
e 51 66
e 51 68
e 51 69
e 51 70
e 51 71
e 51 72
e 51 73
e 51 74
e 51 75
e 51 76
e 51 77
e 51 78
e 51 79
e 51 80
e 51 82
e 51 83
e 51 84
e 51 85
e 51 86
e 51 87
e 51 88
e 51 89
e 51 90
e 51 91
e 51 92
e 51 93
e 51 94
e 51 95
e 51 96
e 51 97
e 51 98
e 51 99
e 51 100
e 52 53
e 52 54
e 52 55
e 52 56
e 52 57
e 52 58
e 52 59
e 52 60
e 52 61
e 52 62
e 52 63
e 52 65
e 52 69
e 52 70
e 52 71
e 52 72
e 52 73
e 52 74
e 52 76
e 52 77
e 52 78
e 52 79
e 52 80
e 52 81
e 52 82
e 52 83
e 52 84
e 52 85
e 52 86
e 52 87
e 52 88
e 52 89
e 52 91
e 52 92
e 52 93
e 52 94
e 52 95
e 52 96
e 52 98
e 52 99
e 52 100
e 53 54
e 53 55
e 53 57
e 53 58
e 53 59
e 53 60
e 53 61
e 53 62
e 53 66
e 53 67
e 53 69
e 53 70
e 53 71
e 53 72
e 53 73
e 53 74
e 53 75
e 53 76
e 53 77
e 53 78
e 53 79
e 53 80
e 53 81
e 53 82
e 53 83
e 53 84
e 53 85
e 53 87
e 53 88
e 53 89
e 53 90
e 53 91
e 53 92
e 53 93
e 53 94
e 53 95
e 53 96
e 53 97
e 53 98
e 53 99
e 53 100
e 54 55
e 54 56
e 54 57
e 54 58
e 54 59
e 54 60
e 54 61
e 54 62
e 54 64
e 54 69
e 54 70
e 54 71
e 54 72
e 54 74
e 54 75
e 54 76
e 54 77
e 54 78
e 54 79
e 54 80
e 54 81
e 54 83
e 54 85
e 54 86
e 54 88
e 54 89
e 54 90
e 54 91
e 54 92
e 54 93
e 54 95
e 54 96
e 54 97
e 54 98
e 54 99
e 54 100
e 55 56
e 55 57
e 55 58
e 55 59
e 55 60
e 55 62
e 55 64
e 55 69
e 55 70
e 55 72
e 55 73
e 55 74
e 55 75
e 55 76
e 55 77
e 55 78
e 55 79
e 55 80
e 55 82
e 55 83
e 55 84
e 55 87
e 55 88
e 55 89
e 55 90
e 55 91
e 55 92
e 55 93
e 55 95
e 55 96
e 55 97
e 55 98
e 55 99
e 55 100
e 56 57
e 56 59
e 56 60
e 56 61
e 56 62
e 56 68
e 56 69
e 56 70
e 56 71
e 56 72
e 56 73
e 56 75
e 56 76
e 56 77
e 56 78
e 56 79
e 56 80
e 56 81
e 56 83
e 56 84
e 56 85
e 56 86
e 56 87
e 56 88
e 56 89
e 56 90
e 56 92
e 56 93
e 56 94
e 56 95
e 56 98
e 56 99
e 56 100
e 57 58
e 57 59
e 57 60
e 57 61
e 57 62
e 57 64
e 57 66
e 57 69
e 57 70
e 57 71
e 57 72
e 57 73
e 57 74
e 57 75
e 57 76
e 57 77
e 57 78
e 57 79
e 57 81
e 57 83
e 57 84
e 57 85
e 57 87
e 57 88
e 57 89
e 57 90
e 57 91
e 57 92
e 57 93
e 57 94
e 57 95
e 58 59
e 58 60
e 58 61
e 58 62
e 58 65
e 58 68
e 58 69
e 58 70
e 58 71
e 58 72
e 58 73
e 58 75
e 58 76
e 58 77
e 58 78
e 58 80
e 58 82
e 58 83
e 58 84
e 58 85
e 58 86
e 58 87
e 58 88
e 58 89
e 58 90
e 58 91
e 58 92
e 58 94
e 58 95
e 58 96
e 58 98
e 58 99
e 58 100
e 59 60
e 59 61
e 59 62
e 59 63
e 59 67
e 59 69
e 59 70
e 59 71
e 59 72
e 59 73
e 59 74
e 59 75
e 59 76
e 59 77
e 59 78
e 59 79
e 59 81
e 59 82
e 59 83
e 59 84
e 59 85
e 59 86
e 59 87
e 59 88
e 59 89
e 59 90
e 59 91
e 59 92
e 59 93
e 59 94
e 59 95
e 59 97
e 59 98
e 59 100
e 60 61
e 60 62
e 60 63
e 60 64
e 60 66
e 60 67
e 60 68
e 60 69
e 60 70
e 60 71
e 60 72
e 60 73
e 60 74
e 60 75
e 60 76
e 60 77
e 60 78
e 60 79
e 60 80
e 60 81
e 60 82
e 60 83
e 60 84
e 60 85
e 60 86
e 60 87
e 60 88
e 60 89
e 60 90
e 60 91
e 60 92
e 60 93
e 60 94
e 60 95
e 60 96
e 60 98
e 60 100
e 61 65
e 61 67
e 61 68
e 61 69
e 61 70
e 61 71
e 61 72
e 61 73
e 61 74
e 61 75
e 61 76
e 61 77
e 61 78
e 61 80
e 61 81
e 61 82
e 61 83
e 61 84
e 61 85
e 61 87
e 61 88
e 61 89
e 61 90
e 61 91
e 61 92
e 61 93
e 61 95
e 61 96
e 61 97
e 61 98
e 61 100
e 62 67
e 62 68
e 62 69
e 62 70
e 62 71
e 62 72
e 62 74
e 62 75
e 62 76
e 62 77
e 62 78
e 62 79
e 62 80
e 62 81
e 62 82
e 62 83
e 62 84
e 62 85
e 62 87
e 62 88
e 62 89
e 62 90
e 62 91
e 62 92
e 62 93
e 62 94
e 62 95
e 62 96
e 62 98
e 62 99
e 63 64
e 63 65
e 63 66
e 63 67
e 63 69
e 63 70
e 63 71
e 63 73
e 63 74
e 63 75
e 63 76
e 63 77
e 63 78
e 63 79
e 63 80
e 63 81
e 63 82
e 63 83
e 63 84
e 63 85
e 63 86
e 63 87
e 63 88
e 63 89
e 63 90
e 63 92
e 63 93
e 63 94
e 63 95
e 63 96
e 63 97
e 63 99
e 63 100
e 64 65
e 64 66
e 64 67
e 64 68
e 64 69
e 64 70
e 64 71
e 64 72
e 64 73
e 64 74
e 64 75
e 64 76
e 64 77
e 64 78
e 64 79
e 64 80
e 64 81
e 64 82
e 64 85
e 64 86
e 64 87
e 64 88
e 64 89
e 64 90
e 64 91
e 64 92
e 64 93
e 64 95
e 64 96
e 64 97
e 64 98
e 64 99
e 64 100
e 65 67
e 65 68
e 65 69
e 65 70
e 65 72
e 65 73
e 65 74
e 65 75
e 65 77
e 65 78
e 65 79
e 65 81
e 65 82
e 65 83
e 65 84
e 65 85
e 65 86
e 65 87
e 65 88
e 65 89
e 65 90
e 65 91
e 65 93
e 65 94
e 65 95
e 65 96
e 65 97
e 65 99
e 65 100
e 66 67
e 66 68
e 66 69
e 66 70
e 66 71
e 66 72
e 66 73
e 66 74
e 66 75
e 66 76
e 66 77
e 66 81
e 66 82
e 66 83
e 66 84
e 66 85
e 66 86
e 66 87
e 66 88
e 66 89
e 66 90
e 66 91
e 66 92
e 66 93
e 66 94
e 66 95
e 66 96
e 66 97
e 66 99
e 66 100
e 67 68
e 67 69
e 67 70
e 67 71
e 67 72
e 67 73
e 67 75
e 67 76
e 67 77
e 67 78
e 67 79
e 67 80
e 67 81
e 67 82
e 67 83
e 67 84
e 67 85
e 67 87
e 67 88
e 67 89
e 67 90
e 67 91
e 67 92
e 67 93
e 67 94
e 67 95
e 67 97
e 67 98
e 67 99
e 67 100
e 68 69
e 68 70
e 68 71
e 68 72
e 68 73
e 68 74
e 68 75
e 68 76
e 68 77
e 68 78
e 68 79
e 68 80
e 68 81
e 68 83
e 68 84
e 68 85
e 68 86
e 68 87
e 68 88
e 68 89
e 68 90
e 68 91
e 68 92
e 68 93
e 68 94
e 68 95
e 68 96
e 68 97
e 68 98
e 68 99
e 68 100
e 69 70
e 69 72
e 69 73
e 69 74
e 69 75
e 69 76
e 69 77
e 69 78
e 69 82
e 69 83
e 69 84
e 69 85
e 69 86
e 69 87
e 69 88
e 69 89
e 69 92
e 69 95
e 69 96
e 69 98
e 69 100
e 70 71
e 70 72
e 70 73
e 70 74
e 70 75
e 70 76
e 70 77
e 70 78
e 70 79
e 70 80
e 70 83
e 70 84
e 70 85
e 70 86
e 70 87
e 70 88
e 70 89
e 70 90
e 70 91
e 70 92
e 70 93
e 70 94
e 70 95
e 70 96
e 70 97
e 70 99
e 70 100
e 71 72
e 71 73
e 71 74
e 71 75
e 71 76
e 71 77
e 71 78
e 71 79
e 71 81
e 71 82
e 71 83
e 71 84
e 71 85
e 71 86
e 71 87
e 71 88
e 71 89
e 71 91
e 71 92
e 71 93
e 71 94
e 71 95
e 71 99
e 71 100
e 72 73
e 72 74
e 72 75
e 72 76
e 72 77
e 72 78
e 72 79
e 72 80
e 72 81
e 72 82
e 72 83
e 72 86
e 72 87
e 72 88
e 72 89
e 72 91
e 72 92
e 72 93
e 72 94
e 72 95
e 72 98
e 72 99
e 73 74
e 73 75
e 73 76
e 73 77
e 73 78
e 73 79
e 73 80
e 73 81
e 73 82
e 73 83
e 73 84
e 73 85
e 73 86
e 73 87
e 73 89
e 73 90
e 73 93
e 73 94
e 73 95
e 73 98
e 73 99
e 73 100
e 74 75
e 74 76
e 74 77
e 74 78
e 74 79
e 74 80
e 74 81
e 74 82
e 74 84
e 74 85
e 74 86
e 74 88
e 74 89
e 74 90
e 74 91
e 74 92
e 74 93
e 74 94
e 74 95
e 74 98
e 74 100
e 75 76
e 75 78
e 75 79
e 75 80
e 75 82
e 75 84
e 75 85
e 75 86
e 75 87
e 75 88
e 75 89
e 75 91
e 75 92
e 75 93
e 75 94
e 75 95
e 75 97
e 75 98
e 75 99
e 76 77
e 76 79
e 76 80
e 76 81
e 76 82
e 76 83
e 76 84
e 76 86
e 76 87
e 76 88
e 76 89
e 76 90
e 76 91
e 76 92
e 76 93
e 76 94
e 76 95
e 76 97
e 76 98
e 77 78
e 77 79
e 77 80
e 77 81
e 77 82
e 77 83
e 77 84
e 77 86
e 77 87
e 77 88
e 77 89
e 77 90
e 77 91
e 77 92
e 77 94
e 77 95
e 77 97
e 77 98
e 77 99
e 77 100
e 78 79
e 78 81
e 78 82
e 78 83
e 78 84
e 78 85
e 78 86
e 78 87
e 78 88
e 78 89
e 78 90
e 78 98
e 78 100
e 79 80
e 79 81
e 79 82
e 79 83
e 79 84
e 79 86
e 79 88
e 79 96
e 79 99
e 79 100
e 80 82
e 80 83
e 80 85
e 80 86
e 80 88
e 80 89
e 80 90
e 80 91
e 80 94
e 80 95
e 80 97
e 80 98
e 80 99
e 80 100
e 81 82
e 81 84
e 81 86
e 81 87
e 81 89
e 81 92
e 81 93
e 81 95
e 81 98
e 81 99
e 81 100
e 82 83
e 82 84
e 82 85
e 82 87
e 82 88
e 82 89
e 82 91
e 82 95
e 82 98
e 82 99
e 82 100
e 83 84
e 83 85
e 83 86
e 83 87
e 83 89
e 83 93
e 83 98
e 83 99
e 83 100
e 84 85
e 84 86
e 84 87
e 84 88
e 84 89
e 84 90
e 84 91
e 84 93
e 84 94
e 84 95
e 85 86
e 85 87
e 85 89
e 85 91
e 85 92
e 85 93
e 85 94
e 85 95
e 85 96
e 85 98
e 85 99
e 85 100
e 86 87
e 86 89
e 86 90
e 86 91
e 86 92
e 86 95
e 86 98
e 87 88
e 87 89
e 87 90
e 87 91
e 87 92
e 87 93
e 87 95
e 87 96
e 87 97
e 87 98
e 87 99
e 87 100
e 88 89
e 88 90
e 88 91
e 88 92
e 88 94
e 88 95
e 88 96
e 88 97
e 88 99
e 88 100
e 89 90
e 89 91
e 89 92
e 89 93
e 89 94
e 89 95
e 89 96
e 89 99
e 90 91
e 90 92
e 90 94
e 90 95
e 90 96
e 90 99
e 91 92
e 91 93
e 91 94
e 91 95
e 91 97
e 91 99
e 91 100
e 92 93
e 92 95
e 92 96
e 92 97
e 92 98
e 92 100
e 93 94
e 93 95
e 93 97
e 93 100
e 94 95
e 94 97
e 95 96
e 95 97
e 95 100
e 96 97
e 96 98
e 96 99
e 96 100
e 97 100
e 98 99
e 98 100
e 99 100
